# Solution for model GasLib-40
# Objective value = 1.0938368329181408e+01
loadshed[innode_1] 0
loadshed[innode_2] 0
loadshed[innode_3] 0
loadshed[innode_4] 0
loadshed[innode_5] 0
loadshed[innode_6] 0
loadshed[innode_7] 0
loadshed[innode_8] 0
loadshed[source_1] -3.1852990205349530e-01
loadshed[source_2] 9.0818243248038888e-02
loadshed[source_3] 2.9690230406786522e-01
loadshed[sink_1] 0
loadshed[sink_2] 0
loadshed[sink_3] 0
loadshed[sink_4] 0
loadshed[sink_5] 0
loadshed[sink_6] 0
loadshed[sink_7] 0
loadshed[sink_8] 0
loadshed[sink_9] 0
loadshed[sink_10] 0
loadshed[sink_11] 0
loadshed[sink_12] 0.668842904204723
loadshed[sink_13] 0
loadshed[sink_14] 0
loadshed[sink_15] 0
loadshed[sink_16] 0
loadshed[sink_17] 0
loadshed[sink_18] 0
loadshed[sink_19] 0
loadshed[sink_20] 0
loadshed[sink_21] 0
loadshed[sink_22] 0
loadshed[sink_23] 0
loadshed[sink_24] 0
loadshed[sink_25] 0
loadshed[sink_26] 0
loadshed[sink_27] 0
loadshed[sink_28] 0
loadshed[sink_29] 0
flow[source_1,sink_3] 2.0844675847394319e+02
flow[innode_1,sink_16] 1.6354166666666970e+01
flow[innode_6,sink_13] 3.3262566118406274e+00
flow[sink_13,sink_14] -1.3027910054826041e+01
flow[sink_14,sink_10] -2.9382076721492695e+01
flow[sink_25,sink_26] 1.6871829383565785e+02
flow[sink_26,sink_9] 1.2758079067585270e+02
flow[sink_9,sink_18] 1.1122662400918603e+02
flow[sink_26,sink_4] 2.4783336493138517e+01
flow[sink_4,sink_20] 8.4291698264718491e+00
flow[sink_18,sink_6] 9.4872457342519354e+01
flow[sink_25,innode_8] -1.7573842514060681e+02
flow[sink_6,sink_7] 4.5809957342518828e+01
flow[sink_6,sink_22] 3.2708333333333641e+01
flow[sink_7,sink_24] 38.1241316708186
flow[sink_22,sink_1] 1.6354166666666970e+01
flow[sink_24,sink_21] 2.1769965004151928e+01
flow[sink_21,sink_12] 5.4157983374852590e+00
flow[sink_7,sink_5] -8.6683409949661012e+00
flow[sink_5,sink_17] -2.5022507661632744e+01
flow[sink_17,sink_4] 0
flow[sink_17,sink_8] -4.1376674328299444e+01
flow[sink_3,sink_23] 16.3541666666697
flow[sink_8,sink_20] -5.7730840994966115e+01
flow[sink_25,sink_20] 6.5655837835161464e+01
flow[sink_25,sink_15] -7.8316129808720078e+01
flow[sink_15,sink_29] -111.024463142071
flow[sink_29,sink_28] 1.6354166666667879e+01
flow[sink_29,sink_2] 0
flow[sink_2,sink_15] -1.6354166666684250e+01
flow[sink_29,innode_7] -1.4373279647540551e+02
flow[innode_4,sink_19] 4.2753708650507150e+01
flow[sink_19,innode_3] 78.4445767214932
flow[innode_4,innode_5] 6.8399201404319570e+01
flow[sink_27,innode_5] -6.8399201404319570e+01
flow[sink_27,sink_19] 52.0450347376529
flow[sink_10,sink_11] 3.2708333333333641e+01
flow[sink_10,innode_2] 0
flow[sink_10,innode_3] -78.4445767214932
flow[innode_6,sink_25] -3.3262566118406274e+00
flow[sink_11,innode_1] 1.6354166666666970e+01
flow[sink_19,innode_2] 0
flow[source_3,innode_4] 1.1115291005482672e+02
flow[source_2,innode_7] 1.4373279647540551e+02
flow[sink_3,innode_8] 1.7573842514060681e+02
pressure[innode_1] 7.4779386128247353e+01
pressure[innode_2] 7.9281188325497425e+01
pressure[innode_3] 7.9107481693232359e+01
pressure[innode_4] 81.01325
pressure[innode_5] 8.0966201422573050e+01
pressure[innode_6] 7.3536379005706067e+01
pressure[innode_7] 81.01325
pressure[innode_8] 80.3164921159696
pressure[source_1] 81.01325
pressure[source_2] 81.01325
pressure[source_3] 81.01325
pressure[sink_1] 45.3586435918481
pressure[sink_2] 73.8628957984588
pressure[sink_3] 80.3164921159696
pressure[sink_4] 5.8502631109743980e+01
pressure[sink_5] 5.0435954915613969e+01
pressure[sink_6] 4.7459721202235471e+01
pressure[sink_7] 4.6830859682334278e+01
pressure[sink_8] 5.3861200284888632e+01
pressure[sink_9] 5.4017609054713482e+01
pressure[sink_10] 74.9310874358509
pressure[sink_11] 7.4779386128247353e+01
pressure[sink_12] 1.01325
pressure[sink_13] 7.3518041908874110e+01
pressure[sink_14] 7.3541356463649777e+01
pressure[sink_15] 7.3916288548225239e+01
pressure[sink_16] 7.3757736293429673e+01
pressure[sink_17] 52.2999508685253
pressure[sink_18] 4.9993098285707838e+01
pressure[sink_19] 7.9281188325497425e+01
pressure[sink_20] 5.7884228017773395e+01
pressure[sink_21] 2.9404874562748384e+00
pressure[sink_22] 4.6422412734203107e+01
pressure[sink_23] 8.0151774104309808e+01
pressure[sink_24] 3.1815695919860474e+00
pressure[sink_25] 7.3536379005706067e+01
pressure[sink_26] 6.1653648653619875e+01
pressure[sink_27] 8.0398614439051627e+01
pressure[sink_28] 76.873678493249
pressure[sink_29] 7.7168960766866178e+01
interdiction[source_1,sink_3] 0
interdiction[innode_1,sink_16] 0
interdiction[innode_6,sink_13] 0
interdiction[sink_13,sink_14] 0
interdiction[sink_14,sink_10] 0
interdiction[sink_25,sink_26] 0
interdiction[sink_26,sink_9] 0
interdiction[sink_9,sink_18] 0
interdiction[sink_26,sink_4] 0
interdiction[sink_4,sink_20] 0
interdiction[sink_18,sink_6] 0
interdiction[sink_25,innode_8] 0
interdiction[sink_6,sink_7] 0
interdiction[sink_6,sink_22] 0
interdiction[sink_7,sink_24] 0
interdiction[sink_22,sink_1] 0
interdiction[sink_24,sink_21] 0
interdiction[sink_21,sink_12] 0
interdiction[sink_7,sink_5] 0
interdiction[sink_5,sink_17] 0
interdiction[sink_17,sink_4] 1
interdiction[sink_17,sink_8] 0
interdiction[sink_3,sink_23] 0
interdiction[sink_8,sink_20] 0
interdiction[sink_25,sink_20] 0
interdiction[sink_25,sink_15] 0
interdiction[sink_15,sink_29] 0
interdiction[sink_29,sink_28] 0
interdiction[sink_29,sink_2] 1
interdiction[sink_2,sink_15] 0
interdiction[sink_29,innode_7] 0
interdiction[innode_4,sink_19] 0
interdiction[sink_19,innode_3] 0
interdiction[innode_4,innode_5] 0
interdiction[sink_27,innode_5] 0
interdiction[sink_27,sink_19] 0
interdiction[sink_10,sink_11] 0
interdiction[sink_10,innode_2] 1
interdiction[sink_10,innode_3] 0
interdiction[innode_6,sink_25] 0
interdiction[sink_11,innode_1] 0
interdiction[sink_19,innode_2] 0
interdiction[source_3,innode_4] 0
interdiction[source_2,innode_7] 0
interdiction[sink_3,innode_8] 0
WCcheckFlow[source_1,sink_3] 39
WCcheckFlow[innode_1,sink_16] 1
WCcheckFlow[innode_6,sink_13] 13
WCcheckFlow[sink_13,sink_14] 12
WCcheckFlow[sink_14,sink_10] 11
WCcheckFlow[sink_25,sink_26] 15
WCcheckFlow[sink_26,sink_9] 12
WCcheckFlow[sink_9,sink_18] 11
WCcheckFlow[sink_26,sink_4] 2
WCcheckFlow[sink_4,sink_20] 1
WCcheckFlow[sink_18,sink_6] 10
WCcheckFlow[sink_25,innode_8] -36
WCcheckFlow[sink_6,sink_7] 7
WCcheckFlow[sink_6,sink_22] 2
WCcheckFlow[sink_7,sink_24] 3
WCcheckFlow[sink_22,sink_1] 1
WCcheckFlow[sink_24,sink_21] 2
WCcheckFlow[sink_21,sink_12] 1
WCcheckFlow[sink_7,sink_5] 3
WCcheckFlow[sink_5,sink_17] 2
WCcheckFlow[sink_17,sink_4] 0
WCcheckFlow[sink_17,sink_8] 1
WCcheckFlow[sink_3,sink_23] 1
WCcheckFlow[sink_8,sink_20] 0
WCcheckFlow[sink_25,sink_20] 0
WCcheckFlow[sink_25,sink_15] 6
WCcheckFlow[sink_15,sink_29] 4
WCcheckFlow[sink_29,sink_28] 1
WCcheckFlow[sink_29,sink_2] 0
WCcheckFlow[sink_2,sink_15] -1
WCcheckFlow[sink_29,innode_7] 2
WCcheckFlow[innode_4,sink_19] -4
WCcheckFlow[sink_19,innode_3] -6
WCcheckFlow[innode_4,innode_5] 2
WCcheckFlow[sink_27,innode_5] -1
WCcheckFlow[sink_27,sink_19] 0
WCcheckFlow[sink_10,sink_11] 3
WCcheckFlow[sink_10,innode_2] 0
WCcheckFlow[sink_10,innode_3] 7
WCcheckFlow[innode_6,sink_25] -14
WCcheckFlow[sink_11,innode_1] 2
WCcheckFlow[sink_19,innode_2] 1
WCcheckFlow[source_3,innode_4] -1
WCcheckFlow[source_2,innode_7] -1
WCcheckFlow[sink_3,innode_8] 37
